Minimize
 obj: 0 X_0_1
Subject To
 out_0:
  + 1 X_0_1 + 1 X_0_2 + 1 X_0_3 + 1 X_0_4 + 1 X_0_5 + 1 X_0_6 + 1 X_0_7 + 1 X_0_8
  + 1 X_0_9 + 1 X_0_10 + 1 X_0_11 + 1 X_0_12 + 1 X_0_13 + 1 X_0_14
  = 1
 in_0:
  + 1 X_1_0 + 1 X_2_0 + 1 X_3_0 + 1 X_4_0 + 1 X_5_0 + 1 X_6_0 + 1 X_7_0 + 1 X_8_0
  + 1 X_9_0 + 1 X_10_0 + 1 X_11_0 + 1 X_12_0 + 1 X_13_0 + 1 X_14_0
  = 1
 out_1:
  + 1 X_1_0 + 1 X_1_2 + 1 X_1_3 + 1 X_1_4 + 1 X_1_5 + 1 X_1_6 + 1 X_1_7 + 1 X_1_8
  + 1 X_1_9 + 1 X_1_10 + 1 X_1_11 + 1 X_1_12 + 1 X_1_13 + 1 X_1_14
  = 1
 in_1:
  + 1 X_0_1 + 1 X_2_1 + 1 X_3_1 + 1 X_4_1 + 1 X_5_1 + 1 X_6_1 + 1 X_7_1 + 1 X_8_1
  + 1 X_9_1 + 1 X_10_1 + 1 X_11_1 + 1 X_12_1 + 1 X_13_1 + 1 X_14_1
  = 1
 out_2:
  + 1 X_2_0 + 1 X_2_1 + 1 X_2_3 + 1 X_2_4 + 1 X_2_5 + 1 X_2_6 + 1 X_2_7 + 1 X_2_8
  + 1 X_2_9 + 1 X_2_10 + 1 X_2_11 + 1 X_2_12 + 1 X_2_13 + 1 X_2_14
  = 1
 in_2:
  + 1 X_0_2 + 1 X_1_2 + 1 X_3_2 + 1 X_4_2 + 1 X_5_2 + 1 X_6_2 + 1 X_7_2 + 1 X_8_2
  + 1 X_9_2 + 1 X_10_2 + 1 X_11_2 + 1 X_12_2 + 1 X_13_2 + 1 X_14_2
  = 1
 out_3:
  + 1 X_3_0 + 1 X_3_1 + 1 X_3_2 + 1 X_3_4 + 1 X_3_5 + 1 X_3_6 + 1 X_3_7 + 1 X_3_8
  + 1 X_3_9 + 1 X_3_10 + 1 X_3_11 + 1 X_3_12 + 1 X_3_13 + 1 X_3_14
  = 1
 in_3:
  + 1 X_0_3 + 1 X_1_3 + 1 X_2_3 + 1 X_4_3 + 1 X_5_3 + 1 X_6_3 + 1 X_7_3 + 1 X_8_3
  + 1 X_9_3 + 1 X_10_3 + 1 X_11_3 + 1 X_12_3 + 1 X_13_3 + 1 X_14_3
  = 1
 out_4:
  + 1 X_4_0 + 1 X_4_1 + 1 X_4_2 + 1 X_4_3 + 1 X_4_5 + 1 X_4_6 + 1 X_4_7 + 1 X_4_8
  + 1 X_4_9 + 1 X_4_10 + 1 X_4_11 + 1 X_4_12 + 1 X_4_13 + 1 X_4_14
  = 1
 in_4:
  + 1 X_0_4 + 1 X_1_4 + 1 X_2_4 + 1 X_3_4 + 1 X_5_4 + 1 X_6_4 + 1 X_7_4 + 1 X_8_4
  + 1 X_9_4 + 1 X_10_4 + 1 X_11_4 + 1 X_12_4 + 1 X_13_4 + 1 X_14_4
  = 1
 out_5:
  + 1 X_5_0 + 1 X_5_1 + 1 X_5_2 + 1 X_5_3 + 1 X_5_4 + 1 X_5_6 + 1 X_5_7 + 1 X_5_8
  + 1 X_5_9 + 1 X_5_10 + 1 X_5_11 + 1 X_5_12 + 1 X_5_13 + 1 X_5_14
  = 1
 in_5:
  + 1 X_0_5 + 1 X_1_5 + 1 X_2_5 + 1 X_3_5 + 1 X_4_5 + 1 X_6_5 + 1 X_7_5 + 1 X_8_5
  + 1 X_9_5 + 1 X_10_5 + 1 X_11_5 + 1 X_12_5 + 1 X_13_5 + 1 X_14_5
  = 1
 out_6:
  + 1 X_6_0 + 1 X_6_1 + 1 X_6_2 + 1 X_6_3 + 1 X_6_4 + 1 X_6_5 + 1 X_6_7 + 1 X_6_8
  + 1 X_6_9 + 1 X_6_10 + 1 X_6_11 + 1 X_6_12 + 1 X_6_13 + 1 X_6_14
  = 1
 in_6:
  + 1 X_0_6 + 1 X_1_6 + 1 X_2_6 + 1 X_3_6 + 1 X_4_6 + 1 X_5_6 + 1 X_7_6 + 1 X_8_6
  + 1 X_9_6 + 1 X_10_6 + 1 X_11_6 + 1 X_12_6 + 1 X_13_6 + 1 X_14_6
  = 1
 out_7:
  + 1 X_7_0 + 1 X_7_1 + 1 X_7_2 + 1 X_7_3 + 1 X_7_4 + 1 X_7_5 + 1 X_7_6 + 1 X_7_8
  + 1 X_7_9 + 1 X_7_10 + 1 X_7_11 + 1 X_7_12 + 1 X_7_13 + 1 X_7_14
  = 1
 in_7:
  + 1 X_0_7 + 1 X_1_7 + 1 X_2_7 + 1 X_3_7 + 1 X_4_7 + 1 X_5_7 + 1 X_6_7 + 1 X_8_7
  + 1 X_9_7 + 1 X_10_7 + 1 X_11_7 + 1 X_12_7 + 1 X_13_7 + 1 X_14_7
  = 1
 out_8:
  + 1 X_8_0 + 1 X_8_1 + 1 X_8_2 + 1 X_8_3 + 1 X_8_4 + 1 X_8_5 + 1 X_8_6 + 1 X_8_7
  + 1 X_8_9 + 1 X_8_10 + 1 X_8_11 + 1 X_8_12 + 1 X_8_13 + 1 X_8_14
  = 1
 in_8:
  + 1 X_0_8 + 1 X_1_8 + 1 X_2_8 + 1 X_3_8 + 1 X_4_8 + 1 X_5_8 + 1 X_6_8 + 1 X_7_8
  + 1 X_9_8 + 1 X_10_8 + 1 X_11_8 + 1 X_12_8 + 1 X_13_8 + 1 X_14_8
  = 1
 out_9:
  + 1 X_9_0 + 1 X_9_1 + 1 X_9_2 + 1 X_9_3 + 1 X_9_4 + 1 X_9_5 + 1 X_9_6 + 1 X_9_7
  + 1 X_9_8 + 1 X_9_10 + 1 X_9_11 + 1 X_9_12 + 1 X_9_13 + 1 X_9_14
  = 1
 in_9:
  + 1 X_0_9 + 1 X_1_9 + 1 X_2_9 + 1 X_3_9 + 1 X_4_9 + 1 X_5_9 + 1 X_6_9 + 1 X_7_9
  + 1 X_8_9 + 1 X_10_9 + 1 X_11_9 + 1 X_12_9 + 1 X_13_9 + 1 X_14_9
  = 1
 out_10:
  + 1 X_10_0 + 1 X_10_1 + 1 X_10_2 + 1 X_10_3 + 1 X_10_4 + 1 X_10_5 + 1 X_10_6 + 1 X_10_7
  + 1 X_10_8 + 1 X_10_9 + 1 X_10_11 + 1 X_10_12 + 1 X_10_13 + 1 X_10_14
  = 1
 in_10:
  + 1 X_0_10 + 1 X_1_10 + 1 X_2_10 + 1 X_3_10 + 1 X_4_10 + 1 X_5_10 + 1 X_6_10 + 1 X_7_10
  + 1 X_8_10 + 1 X_9_10 + 1 X_11_10 + 1 X_12_10 + 1 X_13_10 + 1 X_14_10
  = 1
 out_11:
  + 1 X_11_0 + 1 X_11_1 + 1 X_11_2 + 1 X_11_3 + 1 X_11_4 + 1 X_11_5 + 1 X_11_6 + 1 X_11_7
  + 1 X_11_8 + 1 X_11_9 + 1 X_11_10 + 1 X_11_12 + 1 X_11_13 + 1 X_11_14
  = 1
 in_11:
  + 1 X_0_11 + 1 X_1_11 + 1 X_2_11 + 1 X_3_11 + 1 X_4_11 + 1 X_5_11 + 1 X_6_11 + 1 X_7_11
  + 1 X_8_11 + 1 X_9_11 + 1 X_10_11 + 1 X_12_11 + 1 X_13_11 + 1 X_14_11
  = 1
 out_12:
  + 1 X_12_0 + 1 X_12_1 + 1 X_12_2 + 1 X_12_3 + 1 X_12_4 + 1 X_12_5 + 1 X_12_6 + 1 X_12_7
  + 1 X_12_8 + 1 X_12_9 + 1 X_12_10 + 1 X_12_11 + 1 X_12_13 + 1 X_12_14
  = 1
 in_12:
  + 1 X_0_12 + 1 X_1_12 + 1 X_2_12 + 1 X_3_12 + 1 X_4_12 + 1 X_5_12 + 1 X_6_12 + 1 X_7_12
  + 1 X_8_12 + 1 X_9_12 + 1 X_10_12 + 1 X_11_12 + 1 X_13_12 + 1 X_14_12
  = 1
 out_13:
  + 1 X_13_0 + 1 X_13_1 + 1 X_13_2 + 1 X_13_3 + 1 X_13_4 + 1 X_13_5 + 1 X_13_6 + 1 X_13_7
  + 1 X_13_8 + 1 X_13_9 + 1 X_13_10 + 1 X_13_11 + 1 X_13_12 + 1 X_13_14
  = 1
 in_13:
  + 1 X_0_13 + 1 X_1_13 + 1 X_2_13 + 1 X_3_13 + 1 X_4_13 + 1 X_5_13 + 1 X_6_13 + 1 X_7_13
  + 1 X_8_13 + 1 X_9_13 + 1 X_10_13 + 1 X_11_13 + 1 X_12_13 + 1 X_14_13
  = 1
 out_14:
  + 1 X_14_0 + 1 X_14_1 + 1 X_14_2 + 1 X_14_3 + 1 X_14_4 + 1 X_14_5 + 1 X_14_6 + 1 X_14_7
  + 1 X_14_8 + 1 X_14_9 + 1 X_14_10 + 1 X_14_11 + 1 X_14_12 + 1 X_14_13
  = 1
 in_14:
  + 1 X_0_14 + 1 X_1_14 + 1 X_2_14 + 1 X_3_14 + 1 X_4_14 + 1 X_5_14 + 1 X_6_14 + 1 X_7_14
  + 1 X_8_14 + 1 X_9_14 + 1 X_10_14 + 1 X_11_14 + 1 X_12_14 + 1 X_13_14
  = 1
 mtz_1_2:
  + 1 U1 - 1 U2 + 14 X_1_2
  <= 13
 mtz_1_3:
  + 1 U1 - 1 U3 + 14 X_1_3
  <= 13
 mtz_1_4:
  + 1 U1 - 1 U4 + 14 X_1_4
  <= 13
 mtz_1_5:
  + 1 U1 - 1 U5 + 14 X_1_5
  <= 13
 mtz_1_6:
  + 1 U1 - 1 U6 + 14 X_1_6
  <= 13
 mtz_1_7:
  + 1 U1 - 1 U7 + 14 X_1_7
  <= 13
 mtz_1_8:
  + 1 U1 - 1 U8 + 14 X_1_8
  <= 13
 mtz_1_9:
  + 1 U1 - 1 U9 + 14 X_1_9
  <= 13
 mtz_1_10:
  + 1 U1 - 1 U10 + 14 X_1_10
  <= 13
 mtz_1_11:
  + 1 U1 - 1 U11 + 14 X_1_11
  <= 13
 mtz_1_12:
  + 1 U1 - 1 U12 + 14 X_1_12
  <= 13
 mtz_1_13:
  + 1 U1 - 1 U13 + 14 X_1_13
  <= 13
 mtz_1_14:
  + 1 U1 - 1 U14 + 14 X_1_14
  <= 13
 mtz_2_1:
  + 1 U2 - 1 U1 + 14 X_2_1
  <= 13
 mtz_2_3:
  + 1 U2 - 1 U3 + 14 X_2_3
  <= 13
 mtz_2_4:
  + 1 U2 - 1 U4 + 14 X_2_4
  <= 13
 mtz_2_5:
  + 1 U2 - 1 U5 + 14 X_2_5
  <= 13
 mtz_2_6:
  + 1 U2 - 1 U6 + 14 X_2_6
  <= 13
 mtz_2_7:
  + 1 U2 - 1 U7 + 14 X_2_7
  <= 13
 mtz_2_8:
  + 1 U2 - 1 U8 + 14 X_2_8
  <= 13
 mtz_2_9:
  + 1 U2 - 1 U9 + 14 X_2_9
  <= 13
 mtz_2_10:
  + 1 U2 - 1 U10 + 14 X_2_10
  <= 13
 mtz_2_11:
  + 1 U2 - 1 U11 + 14 X_2_11
  <= 13
 mtz_2_12:
  + 1 U2 - 1 U12 + 14 X_2_12
  <= 13
 mtz_2_13:
  + 1 U2 - 1 U13 + 14 X_2_13
  <= 13
 mtz_2_14:
  + 1 U2 - 1 U14 + 14 X_2_14
  <= 13
 mtz_3_1:
  + 1 U3 - 1 U1 + 14 X_3_1
  <= 13
 mtz_3_2:
  + 1 U3 - 1 U2 + 14 X_3_2
  <= 13
 mtz_3_4:
  + 1 U3 - 1 U4 + 14 X_3_4
  <= 13
 mtz_3_5:
  + 1 U3 - 1 U5 + 14 X_3_5
  <= 13
 mtz_3_6:
  + 1 U3 - 1 U6 + 14 X_3_6
  <= 13
 mtz_3_7:
  + 1 U3 - 1 U7 + 14 X_3_7
  <= 13
 mtz_3_8:
  + 1 U3 - 1 U8 + 14 X_3_8
  <= 13
 mtz_3_9:
  + 1 U3 - 1 U9 + 14 X_3_9
  <= 13
 mtz_3_10:
  + 1 U3 - 1 U10 + 14 X_3_10
  <= 13
 mtz_3_11:
  + 1 U3 - 1 U11 + 14 X_3_11
  <= 13
 mtz_3_12:
  + 1 U3 - 1 U12 + 14 X_3_12
  <= 13
 mtz_3_13:
  + 1 U3 - 1 U13 + 14 X_3_13
  <= 13
 mtz_3_14:
  + 1 U3 - 1 U14 + 14 X_3_14
  <= 13
 mtz_4_1:
  + 1 U4 - 1 U1 + 14 X_4_1
  <= 13
 mtz_4_2:
  + 1 U4 - 1 U2 + 14 X_4_2
  <= 13
 mtz_4_3:
  + 1 U4 - 1 U3 + 14 X_4_3
  <= 13
 mtz_4_5:
  + 1 U4 - 1 U5 + 14 X_4_5
  <= 13
 mtz_4_6:
  + 1 U4 - 1 U6 + 14 X_4_6
  <= 13
 mtz_4_7:
  + 1 U4 - 1 U7 + 14 X_4_7
  <= 13
 mtz_4_8:
  + 1 U4 - 1 U8 + 14 X_4_8
  <= 13
 mtz_4_9:
  + 1 U4 - 1 U9 + 14 X_4_9
  <= 13
 mtz_4_10:
  + 1 U4 - 1 U10 + 14 X_4_10
  <= 13
 mtz_4_11:
  + 1 U4 - 1 U11 + 14 X_4_11
  <= 13
 mtz_4_12:
  + 1 U4 - 1 U12 + 14 X_4_12
  <= 13
 mtz_4_13:
  + 1 U4 - 1 U13 + 14 X_4_13
  <= 13
 mtz_4_14:
  + 1 U4 - 1 U14 + 14 X_4_14
  <= 13
 mtz_5_1:
  + 1 U5 - 1 U1 + 14 X_5_1
  <= 13
 mtz_5_2:
  + 1 U5 - 1 U2 + 14 X_5_2
  <= 13
 mtz_5_3:
  + 1 U5 - 1 U3 + 14 X_5_3
  <= 13
 mtz_5_4:
  + 1 U5 - 1 U4 + 14 X_5_4
  <= 13
 mtz_5_6:
  + 1 U5 - 1 U6 + 14 X_5_6
  <= 13
 mtz_5_7:
  + 1 U5 - 1 U7 + 14 X_5_7
  <= 13
 mtz_5_8:
  + 1 U5 - 1 U8 + 14 X_5_8
  <= 13
 mtz_5_9:
  + 1 U5 - 1 U9 + 14 X_5_9
  <= 13
 mtz_5_10:
  + 1 U5 - 1 U10 + 14 X_5_10
  <= 13
 mtz_5_11:
  + 1 U5 - 1 U11 + 14 X_5_11
  <= 13
 mtz_5_12:
  + 1 U5 - 1 U12 + 14 X_5_12
  <= 13
 mtz_5_13:
  + 1 U5 - 1 U13 + 14 X_5_13
  <= 13
 mtz_5_14:
  + 1 U5 - 1 U14 + 14 X_5_14
  <= 13
 mtz_6_1:
  + 1 U6 - 1 U1 + 14 X_6_1
  <= 13
 mtz_6_2:
  + 1 U6 - 1 U2 + 14 X_6_2
  <= 13
 mtz_6_3:
  + 1 U6 - 1 U3 + 14 X_6_3
  <= 13
 mtz_6_4:
  + 1 U6 - 1 U4 + 14 X_6_4
  <= 13
 mtz_6_5:
  + 1 U6 - 1 U5 + 14 X_6_5
  <= 13
 mtz_6_7:
  + 1 U6 - 1 U7 + 14 X_6_7
  <= 13
 mtz_6_8:
  + 1 U6 - 1 U8 + 14 X_6_8
  <= 13
 mtz_6_9:
  + 1 U6 - 1 U9 + 14 X_6_9
  <= 13
 mtz_6_10:
  + 1 U6 - 1 U10 + 14 X_6_10
  <= 13
 mtz_6_11:
  + 1 U6 - 1 U11 + 14 X_6_11
  <= 13
 mtz_6_12:
  + 1 U6 - 1 U12 + 14 X_6_12
  <= 13
 mtz_6_13:
  + 1 U6 - 1 U13 + 14 X_6_13
  <= 13
 mtz_6_14:
  + 1 U6 - 1 U14 + 14 X_6_14
  <= 13
 mtz_7_1:
  + 1 U7 - 1 U1 + 14 X_7_1
  <= 13
 mtz_7_2:
  + 1 U7 - 1 U2 + 14 X_7_2
  <= 13
 mtz_7_3:
  + 1 U7 - 1 U3 + 14 X_7_3
  <= 13
 mtz_7_4:
  + 1 U7 - 1 U4 + 14 X_7_4
  <= 13
 mtz_7_5:
  + 1 U7 - 1 U5 + 14 X_7_5
  <= 13
 mtz_7_6:
  + 1 U7 - 1 U6 + 14 X_7_6
  <= 13
 mtz_7_8:
  + 1 U7 - 1 U8 + 14 X_7_8
  <= 13
 mtz_7_9:
  + 1 U7 - 1 U9 + 14 X_7_9
  <= 13
 mtz_7_10:
  + 1 U7 - 1 U10 + 14 X_7_10
  <= 13
 mtz_7_11:
  + 1 U7 - 1 U11 + 14 X_7_11
  <= 13
 mtz_7_12:
  + 1 U7 - 1 U12 + 14 X_7_12
  <= 13
 mtz_7_13:
  + 1 U7 - 1 U13 + 14 X_7_13
  <= 13
 mtz_7_14:
  + 1 U7 - 1 U14 + 14 X_7_14
  <= 13
 mtz_8_1:
  + 1 U8 - 1 U1 + 14 X_8_1
  <= 13
 mtz_8_2:
  + 1 U8 - 1 U2 + 14 X_8_2
  <= 13
 mtz_8_3:
  + 1 U8 - 1 U3 + 14 X_8_3
  <= 13
 mtz_8_4:
  + 1 U8 - 1 U4 + 14 X_8_4
  <= 13
 mtz_8_5:
  + 1 U8 - 1 U5 + 14 X_8_5
  <= 13
 mtz_8_6:
  + 1 U8 - 1 U6 + 14 X_8_6
  <= 13
 mtz_8_7:
  + 1 U8 - 1 U7 + 14 X_8_7
  <= 13
 mtz_8_9:
  + 1 U8 - 1 U9 + 14 X_8_9
  <= 13
 mtz_8_10:
  + 1 U8 - 1 U10 + 14 X_8_10
  <= 13
 mtz_8_11:
  + 1 U8 - 1 U11 + 14 X_8_11
  <= 13
 mtz_8_12:
  + 1 U8 - 1 U12 + 14 X_8_12
  <= 13
 mtz_8_13:
  + 1 U8 - 1 U13 + 14 X_8_13
  <= 13
 mtz_8_14:
  + 1 U8 - 1 U14 + 14 X_8_14
  <= 13
 mtz_9_1:
  + 1 U9 - 1 U1 + 14 X_9_1
  <= 13
 mtz_9_2:
  + 1 U9 - 1 U2 + 14 X_9_2
  <= 13
 mtz_9_3:
  + 1 U9 - 1 U3 + 14 X_9_3
  <= 13
 mtz_9_4:
  + 1 U9 - 1 U4 + 14 X_9_4
  <= 13
 mtz_9_5:
  + 1 U9 - 1 U5 + 14 X_9_5
  <= 13
 mtz_9_6:
  + 1 U9 - 1 U6 + 14 X_9_6
  <= 13
 mtz_9_7:
  + 1 U9 - 1 U7 + 14 X_9_7
  <= 13
 mtz_9_8:
  + 1 U9 - 1 U8 + 14 X_9_8
  <= 13
 mtz_9_10:
  + 1 U9 - 1 U10 + 14 X_9_10
  <= 13
 mtz_9_11:
  + 1 U9 - 1 U11 + 14 X_9_11
  <= 13
 mtz_9_12:
  + 1 U9 - 1 U12 + 14 X_9_12
  <= 13
 mtz_9_13:
  + 1 U9 - 1 U13 + 14 X_9_13
  <= 13
 mtz_9_14:
  + 1 U9 - 1 U14 + 14 X_9_14
  <= 13
 mtz_10_1:
  + 1 U10 - 1 U1 + 14 X_10_1
  <= 13
 mtz_10_2:
  + 1 U10 - 1 U2 + 14 X_10_2
  <= 13
 mtz_10_3:
  + 1 U10 - 1 U3 + 14 X_10_3
  <= 13
 mtz_10_4:
  + 1 U10 - 1 U4 + 14 X_10_4
  <= 13
 mtz_10_5:
  + 1 U10 - 1 U5 + 14 X_10_5
  <= 13
 mtz_10_6:
  + 1 U10 - 1 U6 + 14 X_10_6
  <= 13
 mtz_10_7:
  + 1 U10 - 1 U7 + 14 X_10_7
  <= 13
 mtz_10_8:
  + 1 U10 - 1 U8 + 14 X_10_8
  <= 13
 mtz_10_9:
  + 1 U10 - 1 U9 + 14 X_10_9
  <= 13
 mtz_10_11:
  + 1 U10 - 1 U11 + 14 X_10_11
  <= 13
 mtz_10_12:
  + 1 U10 - 1 U12 + 14 X_10_12
  <= 13
 mtz_10_13:
  + 1 U10 - 1 U13 + 14 X_10_13
  <= 13
 mtz_10_14:
  + 1 U10 - 1 U14 + 14 X_10_14
  <= 13
 mtz_11_1:
  + 1 U11 - 1 U1 + 14 X_11_1
  <= 13
 mtz_11_2:
  + 1 U11 - 1 U2 + 14 X_11_2
  <= 13
 mtz_11_3:
  + 1 U11 - 1 U3 + 14 X_11_3
  <= 13
 mtz_11_4:
  + 1 U11 - 1 U4 + 14 X_11_4
  <= 13
 mtz_11_5:
  + 1 U11 - 1 U5 + 14 X_11_5
  <= 13
 mtz_11_6:
  + 1 U11 - 1 U6 + 14 X_11_6
  <= 13
 mtz_11_7:
  + 1 U11 - 1 U7 + 14 X_11_7
  <= 13
 mtz_11_8:
  + 1 U11 - 1 U8 + 14 X_11_8
  <= 13
 mtz_11_9:
  + 1 U11 - 1 U9 + 14 X_11_9
  <= 13
 mtz_11_10:
  + 1 U11 - 1 U10 + 14 X_11_10
  <= 13
 mtz_11_12:
  + 1 U11 - 1 U12 + 14 X_11_12
  <= 13
 mtz_11_13:
  + 1 U11 - 1 U13 + 14 X_11_13
  <= 13
 mtz_11_14:
  + 1 U11 - 1 U14 + 14 X_11_14
  <= 13
 mtz_12_1:
  + 1 U12 - 1 U1 + 14 X_12_1
  <= 13
 mtz_12_2:
  + 1 U12 - 1 U2 + 14 X_12_2
  <= 13
 mtz_12_3:
  + 1 U12 - 1 U3 + 14 X_12_3
  <= 13
 mtz_12_4:
  + 1 U12 - 1 U4 + 14 X_12_4
  <= 13
 mtz_12_5:
  + 1 U12 - 1 U5 + 14 X_12_5
  <= 13
 mtz_12_6:
  + 1 U12 - 1 U6 + 14 X_12_6
  <= 13
 mtz_12_7:
  + 1 U12 - 1 U7 + 14 X_12_7
  <= 13
 mtz_12_8:
  + 1 U12 - 1 U8 + 14 X_12_8
  <= 13
 mtz_12_9:
  + 1 U12 - 1 U9 + 14 X_12_9
  <= 13
 mtz_12_10:
  + 1 U12 - 1 U10 + 14 X_12_10
  <= 13
 mtz_12_11:
  + 1 U12 - 1 U11 + 14 X_12_11
  <= 13
 mtz_12_13:
  + 1 U12 - 1 U13 + 14 X_12_13
  <= 13
 mtz_12_14:
  + 1 U12 - 1 U14 + 14 X_12_14
  <= 13
 mtz_13_1:
  + 1 U13 - 1 U1 + 14 X_13_1
  <= 13
 mtz_13_2:
  + 1 U13 - 1 U2 + 14 X_13_2
  <= 13
 mtz_13_3:
  + 1 U13 - 1 U3 + 14 X_13_3
  <= 13
 mtz_13_4:
  + 1 U13 - 1 U4 + 14 X_13_4
  <= 13
 mtz_13_5:
  + 1 U13 - 1 U5 + 14 X_13_5
  <= 13
 mtz_13_6:
  + 1 U13 - 1 U6 + 14 X_13_6
  <= 13
 mtz_13_7:
  + 1 U13 - 1 U7 + 14 X_13_7
  <= 13
 mtz_13_8:
  + 1 U13 - 1 U8 + 14 X_13_8
  <= 13
 mtz_13_9:
  + 1 U13 - 1 U9 + 14 X_13_9
  <= 13
 mtz_13_10:
  + 1 U13 - 1 U10 + 14 X_13_10
  <= 13
 mtz_13_11:
  + 1 U13 - 1 U11 + 14 X_13_11
  <= 13
 mtz_13_12:
  + 1 U13 - 1 U12 + 14 X_13_12
  <= 13
 mtz_13_14:
  + 1 U13 - 1 U14 + 14 X_13_14
  <= 13
 mtz_14_1:
  + 1 U14 - 1 U1 + 14 X_14_1
  <= 13
 mtz_14_2:
  + 1 U14 - 1 U2 + 14 X_14_2
  <= 13
 mtz_14_3:
  + 1 U14 - 1 U3 + 14 X_14_3
  <= 13
 mtz_14_4:
  + 1 U14 - 1 U4 + 14 X_14_4
  <= 13
 mtz_14_5:
  + 1 U14 - 1 U5 + 14 X_14_5
  <= 13
 mtz_14_6:
  + 1 U14 - 1 U6 + 14 X_14_6
  <= 13
 mtz_14_7:
  + 1 U14 - 1 U7 + 14 X_14_7
  <= 13
 mtz_14_8:
  + 1 U14 - 1 U8 + 14 X_14_8
  <= 13
 mtz_14_9:
  + 1 U14 - 1 U9 + 14 X_14_9
  <= 13
 mtz_14_10:
  + 1 U14 - 1 U10 + 14 X_14_10
  <= 13
 mtz_14_11:
  + 1 U14 - 1 U11 + 14 X_14_11
  <= 13
 mtz_14_12:
  + 1 U14 - 1 U12 + 14 X_14_12
  <= 13
 mtz_14_13:
  + 1 U14 - 1 U13 + 14 X_14_13
  <= 13
 obj1:
  + 367 X_0_1 + 934 X_0_2 + 442 X_0_3 + 612 X_0_4 + 675 X_0_5 + 724 X_0_6 + 247 X_0_7 + 659 X_0_8
  + 356 X_0_9 + 467 X_0_10 + 500 X_0_11 + 242 X_0_12 + 879 X_0_13 + 851 X_0_14 + 367 X_1_0 + 836 X_1_2
  + 412 X_1_3 + 522 X_1_4 + 752 X_1_5 + 398 X_1_6 + 148 X_1_7 + 323 X_1_8 + 138 X_1_9 + 156 X_1_10
  + 398 X_1_11 + 164 X_1_12 + 822 X_1_13 + 595 X_1_14 + 934 X_2_0 + 836 X_2_1 + 493 X_2_3 + 329 X_2_4
  + 416 X_2_5 + 645 X_2_6 + 923 X_2_7 + 681 X_2_8 + 971 X_2_9 + 701 X_2_10 + 454 X_2_11 + 774 X_2_12
  + 103 X_2_13 + 426 X_2_14 + 442 X_3_0 + 412 X_3_1 + 493 X_3_2 + 171 X_3_4 + 342 X_3_5 + 484 X_3_6
  + 455 X_3_7 + 458 X_3_8 + 529 X_3_9 + 339 X_3_10 + 91 X_3_11 + 300 X_3_12 + 447 X_3_13 + 484 X_3_14
  + 612 X_4_0 + 522 X_4_1 + 329 X_4_2 + 171 X_4_3 + 326 X_4_5 + 452 X_4_6 + 596 X_4_7 + 454 X_4_8
  + 653 X_4_9 + 405 X_4_10 + 127 X_4_11 + 446 X_4_12 + 300 X_4_13 + 365 X_4_14 + 675 X_5_0 + 752 X_5_1
  + 416 X_5_2 + 342 X_5_3 + 326 X_5_4 + 776 X_5_6 + 771 X_5_7 + 770 X_5_8 + 859 X_5_9 + 679 X_5_10
  + 392 X_5_11 + 620 X_5_12 + 317 X_5_13 + 674 X_5_14 + 724 X_6_0 + 398 X_6_1 + 645 X_6_2 + 484 X_6_3
  + 452 X_6_4 + 776 X_6_5 + 545 X_6_7 + 75 X_6_8 + 515 X_6_9 + 258 X_6_10 + 401 X_6_11 + 482 X_6_12
  + 681 X_6_13 + 258 X_6_14 + 247 X_7_0 + 148 X_7_1 + 923 X_7_2 + 455 X_7_3 + 596 X_7_4 + 771 X_7_5
  + 545 X_7_6 + 471 X_7_8 + 112 X_7_9 + 293 X_7_10 + 469 X_7_11 + 155 X_7_12 + 894 X_7_13 + 728 X_7_14
  + 659 X_8_0 + 323 X_8_1 + 681 X_8_2 + 458 X_8_3 + 454 X_8_4 + 770 X_8_5 + 75 X_8_6 + 471 X_8_7
  + 440 X_8_9 + 191 X_8_10 + 383 X_8_11 + 417 X_8_12 + 707 X_8_13 + 320 X_8_14 + 356 X_9_0 + 138 X_9_1
  + 971 X_9_2 + 529 X_9_3 + 653 X_9_4 + 859 X_9_5 + 515 X_9_6 + 112 X_9_7 + 440 X_9_8 + 291 X_9_10
  + 527 X_9_11 + 241 X_9_12 + 953 X_9_13 + 729 X_9_14 + 467 X_10_0 + 156 X_10_1 + 701 X_10_2 + 339 X_10_3
  + 405 X_10_4 + 679 X_10_5 + 258 X_10_6 + 293 X_10_7 + 191 X_10_8 + 291 X_10_9 + 294 X_10_11 + 226 X_10_12
  + 698 X_10_13 + 439 X_10_14 + 500 X_11_0 + 398 X_11_1 + 454 X_11_2 + 91 X_11_3 + 127 X_11_4 + 392 X_11_5
  + 401 X_11_6 + 469 X_11_7 + 383 X_11_8 + 527 X_11_9 + 294 X_11_10 + 319 X_11_12 + 427 X_11_13 + 393 X_11_14
  + 242 X_12_0 + 164 X_12_1 + 774 X_12_2 + 300 X_12_3 + 446 X_12_4 + 620 X_12_5 + 482 X_12_6 + 155 X_12_7
  + 417 X_12_8 + 241 X_12_9 + 226 X_12_10 + 319 X_12_11 + 741 X_12_13 + 621 X_12_14 + 879 X_13_0 + 822 X_13_1
  + 103 X_13_2 + 447 X_13_3 + 300 X_13_4 + 317 X_13_5 + 681 X_13_6 + 894 X_13_7 + 707 X_13_8 + 953 X_13_9
  + 698 X_13_10 + 427 X_13_11 + 741 X_13_12 + 488 X_13_14 + 851 X_14_0 + 595 X_14_1 + 426 X_14_2 + 484 X_14_3
  + 365 X_14_4 + 674 X_14_5 + 258 X_14_6 + 728 X_14_7 + 320 X_14_8 + 729 X_14_9 + 439 X_14_10 + 393 X_14_11
  + 621 X_14_12 + 488 X_14_13
  <= 1
 obj2:
  + 505 X_0_1 + 854 X_0_2 + 763 X_0_3 + 691 X_0_4 + 235 X_0_5 + 718 X_0_6 + 966 X_0_7 + 317 X_0_8
  + 697 X_0_9 + 436 X_0_10 + 616 X_0_11 + 486 X_0_12 + 976 X_0_13 + 496 X_0_14 + 505 X_1_0 + 1088 X_1_2
  + 503 X_1_3 + 361 X_1_4 + 740 X_1_5 + 931 X_1_6 + 815 X_1_7 + 617 X_1_8 + 670 X_1_9 + 857 X_1_10
  + 544 X_1_11 + 584 X_1_12 + 1249 X_1_13 + 306 X_1_14 + 854 X_2_0 + 1088 X_2_1 + 843 X_2_3 + 928 X_2_4
  + 834 X_2_5 + 156 X_2_6 + 714 X_2_7 + 543 X_2_8 + 524 X_2_9 + 511 X_2_10 + 617 X_2_11 + 504 X_2_12
  + 172 X_2_13 + 808 X_2_14 + 763 X_3_0 + 503 X_3_1 + 843 X_3_2 + 149 X_3_4 + 954 X_3_5 + 707 X_3_6
  + 322 X_3_7 + 629 X_3_8 + 318 X_3_9 + 881 X_3_10 + 244 X_3_11 + 430 X_3_12 + 1015 X_3_13 + 272 X_3_14
  + 691 X_4_0 + 361 X_4_1 + 928 X_4_2 + 149 X_4_3 + 902 X_4_5 + 781 X_4_6 + 472 X_4_7 + 622 X_4_8
  + 418 X_4_9 + 884 X_4_10 + 310 X_4_11 + 462 X_4_12 + 1100 X_4_13 + 202 X_4_14 + 235 X_5_0 + 740 X_5_1
  + 834 X_5_2 + 954 X_5_3 + 902 X_5_4 + 726 X_5_6 + 1111 X_5_7 + 381 X_5_8 + 824 X_5_9 + 334 X_5_10
  + 770 X_5_11 + 602 X_5_12 + 920 X_5_13 + 701 X_5_14 + 718 X_6_0 + 931 X_6_1 + 156 X_6_2 + 707 X_6_3
  + 781 X_6_4 + 726 X_6_5 + 623 X_6_7 + 401 X_6_8 + 393 X_6_9 + 428 X_6_10 + 472 X_6_11 + 348 X_6_12
  + 322 X_6_13 + 654 X_6_14 + 966 X_7_0 + 815 X_7_1 + 714 X_7_2 + 322 X_7_3 + 472 X_7_4 + 1111 X_7_5
  + 623 X_7_6 + 737 X_7_8 + 291 X_7_9 + 941 X_7_10 + 349 X_7_11 + 510 X_7_12 + 872 X_7_13 + 538 X_7_14
  + 317 X_8_0 + 617 X_8_1 + 543 X_8_2 + 629 X_8_3 + 622 X_8_4 + 381 X_8_5 + 401 X_8_6 + 737 X_8_7
  + 447 X_8_9 + 262 X_8_10 + 412 X_8_11 + 227 X_8_12 + 677 X_8_13 + 429 X_8_14 + 697 X_9_0 + 670 X_9_1
  + 524 X_9_2 + 318 X_9_3 + 418 X_9_4 + 824 X_9_5 + 393 X_9_6 + 291 X_9_7 + 447 X_9_8 + 653 X_9_10
  + 125 X_9_11 + 222 X_9_12 + 696 X_9_13 + 363 X_9_14 + 436 X_10_0 + 857 X_10_1 + 511 X_10_2 + 881 X_10_3
  + 884 X_10_4 + 334 X_10_5 + 428 X_10_6 + 941 X_10_7 + 262 X_10_8 + 653 X_10_9 + 650 X_10_11 + 456 X_10_12
  + 586 X_10_13 + 691 X_10_14 + 616 X_11_0 + 544 X_11_1 + 617 X_11_2 + 244 X_11_3 + 310 X_11_4 + 770 X_11_5
  + 472 X_11_6 + 349 X_11_7 + 412 X_11_8 + 125 X_11_9 + 650 X_11_10 + 193 X_11_12 + 789 X_11_13 + 238 X_11_14
  + 486 X_12_0 + 584 X_12_1 + 504 X_12_2 + 430 X_12_3 + 462 X_12_4 + 602 X_12_5 + 348 X_12_6 + 510 X_12_7
  + 227 X_12_8 + 222 X_12_9 + 456 X_12_10 + 193 X_12_11 + 670 X_12_13 + 308 X_12_14 + 976 X_13_0 + 1249 X_13_1
  + 172 X_13_2 + 1015 X_13_3 + 1100 X_13_4 + 920 X_13_5 + 322 X_13_6 + 872 X_13_7 + 677 X_13_8 + 696 X_13_9
  + 586 X_13_10 + 789 X_13_11 + 670 X_13_12 + 976 X_13_14 + 496 X_14_0 + 306 X_14_1 + 808 X_14_2 + 272 X_14_3
  + 202 X_14_4 + 701 X_14_5 + 654 X_14_6 + 538 X_14_7 + 429 X_14_8 + 363 X_14_9 + 691 X_14_10 + 238 X_14_11
  + 308 X_14_12 + 976 X_14_13
  <= 2
 obj3:
  + 634 X_0_1 + 1040 X_0_2 + 728 X_0_3 + 262 X_0_4 + 109 X_0_5 + 635 X_0_6 + 594 X_0_7 + 1171 X_0_8
  + 604 X_0_9 + 617 X_0_10 + 284 X_0_11 + 404 X_0_12 + 645 X_0_13 + 784 X_0_14 + 634 X_1_0 + 570 X_1_2
  + 586 X_1_3 + 595 X_1_4 + 724 X_1_5 + 268 X_1_6 + 548 X_1_7 + 634 X_1_8 + 760 X_1_9 + 525 X_1_10
  + 394 X_1_11 + 234 X_1_12 + 173 X_1_13 + 318 X_1_14 + 1040 X_2_0 + 570 X_2_1 + 454 X_2_3 + 860 X_2_4
  + 1149 X_2_5 + 409 X_2_6 + 556 X_2_7 + 172 X_2_8 + 770 X_2_9 + 515 X_2_10 + 757 X_2_11 + 741 X_2_12
  + 730 X_2_13 + 825 X_2_14 + 728 X_3_0 + 586 X_3_1 + 454 X_3_2 + 489 X_3_4 + 835 X_3_5 + 320 X_3_6
  + 137 X_3_7 + 626 X_3_8 + 316 X_3_9 + 111 X_3_10 + 488 X_3_11 + 604 X_3_12 + 751 X_3_13 + 904 X_3_14
  + 262 X_4_0 + 595 X_4_1 + 860 X_4_2 + 489 X_4_3 + 359 X_4_5 + 487 X_4_6 + 351 X_4_7 + 1010 X_4_8
  + 344 X_4_9 + 381 X_4_10 + 209 X_4_11 + 422 X_4_12 + 676 X_4_13 + 838 X_4_14 + 109 X_5_0 + 724 X_5_1
  + 1149 X_5_2 + 835 X_5_3 + 359 X_5_4 + 743 X_5_6 + 700 X_5_7 + 1277 X_5_8 + 693 X_5_9 + 724 X_5_10
  + 392 X_5_11 + 491 X_5_12 + 717 X_5_13 + 844 X_5_14 + 635 X_6_0 + 268 X_6_1 + 409 X_6_2 + 320 X_6_3
  + 487 X_6_4 + 743 X_6_5 + 305 X_6_7 + 536 X_6_8 + 537 X_6_9 + 274 X_6_10 + 351 X_6_11 + 349 X_6_12
  + 437 X_6_13 + 586 X_6_14 + 594 X_7_0 + 548 X_7_1 + 556 X_7_2 + 137 X_7_3 + 351 X_7_4 + 700 X_7_5
  + 305 X_7_6 + 723 X_7_8 + 236 X_7_9 + 41 X_7_10 + 368 X_7_11 + 515 X_7_12 + 698 X_7_13 + 860 X_7_14
  + 1171 X_8_0 + 634 X_8_1 + 172 X_8_2 + 626 X_8_3 + 1010 X_8_4 + 1277 X_8_5 + 536 X_8_6 + 723 X_8_7
  + 941 X_8_9 + 681 X_8_10 + 887 X_8_11 + 836 X_8_12 + 774 X_8_13 + 837 X_8_14 + 604 X_9_0 + 760 X_9_1
  + 770 X_9_2 + 316 X_9_3 + 344 X_9_4 + 693 X_9_5 + 537 X_9_6 + 236 X_9_7 + 941 X_9_8 + 275 X_9_10
  + 478 X_9_11 + 674 X_9_12 + 894 X_9_13 + 1059 X_9_14 + 617 X_10_0 + 525 X_10_1 + 515 X_10_2 + 111 X_10_3
  + 381 X_10_4 + 724 X_10_5 + 274 X_10_6 + 41 X_10_7 + 681 X_10_8 + 275 X_10_9 + 379 X_10_11 + 510 X_10_12
  + 681 X_10_13 + 841 X_10_14 + 284 X_11_0 + 394 X_11_1 + 757 X_11_2 + 488 X_11_3 + 209 X_11_4 + 392 X_11_5
  + 351 X_11_6 + 368 X_11_7 + 887 X_11_8 + 478 X_11_9 + 379 X_11_10 + 214 X_11_12 + 467 X_11_13 + 629 X_11_14
  + 404 X_12_0 + 234 X_12_1 + 741 X_12_2 + 604 X_12_3 + 422 X_12_4 + 491 X_12_5 + 349 X_12_6 + 515 X_12_7
  + 836 X_12_8 + 674 X_12_9 + 510 X_12_10 + 214 X_12_11 + 257 X_12_13 + 416 X_12_14 + 645 X_13_0 + 173 X_13_1
  + 730 X_13_2 + 751 X_13_3 + 676 X_13_4 + 717 X_13_5 + 437 X_13_6 + 698 X_13_7 + 774 X_13_8 + 894 X_13_9
  + 681 X_13_10 + 467 X_13_11 + 257 X_13_12 + 166 X_13_14 + 784 X_14_0 + 318 X_14_1 + 825 X_14_2 + 904 X_14_3
  + 838 X_14_4 + 844 X_14_5 + 586 X_14_6 + 860 X_14_7 + 837 X_14_8 + 1059 X_14_9 + 841 X_14_10 + 629 X_14_11
  + 416 X_14_12 + 166 X_14_13
  <= 3
 obj4:
  + 375 X_0_1 + 666 X_0_2 + 327 X_0_3 + 355 X_0_4 + 917 X_0_5 + 317 X_0_6 + 249 X_0_7 + 485 X_0_8
  + 873 X_0_9 + 276 X_0_10 + 739 X_0_11 + 249 X_0_12 + 714 X_0_13 + 659 X_0_14 + 375 X_1_0 + 948 X_1_2
  + 508 X_1_3 + 285 X_1_4 + 676 X_1_5 + 616 X_1_6 + 559 X_1_7 + 353 X_1_8 + 534 X_1_9 + 437 X_1_10
  + 799 X_1_11 + 128 X_1_12 + 672 X_1_13 + 654 X_1_14 + 666 X_2_0 + 948 X_2_1 + 447 X_2_3 + 716 X_2_4
  + 1118 X_2_5 + 350 X_2_6 + 417 X_2_7 + 771 X_2_8 + 1260 X_2_9 + 514 X_2_10 + 528 X_2_11 + 832 X_2_12
  + 698 X_2_13 + 624 X_2_14 + 327 X_3_0 + 508 X_3_1 + 447 X_3_2 + 271 X_3_4 + 760 X_3_5 + 183 X_3_6
  + 181 X_3_7 + 349 X_3_8 + 837 X_3_9 + 71 X_3_10 + 416 X_3_11 + 404 X_3_12 + 436 X_3_13 + 367 X_3_14
  + 355 X_4_0 + 285 X_4_1 + 716 X_4_2 + 271 X_4_3 + 564 X_4_5 + 432 X_4_6 + 397 X_4_7 + 129 X_4_8
  + 575 X_4_9 + 214 X_4_10 + 515 X_4_11 + 236 X_4_12 + 408 X_4_13 + 377 X_4_14 + 917 X_5_0 + 676 X_5_1
  + 1118 X_5_2 + 760 X_5_3 + 564 X_5_4 + 944 X_5_6 + 931 X_5_7 + 438 X_5_8 + 326 X_5_9 + 737 X_5_10
  + 649 X_5_11 + 730 X_5_12 + 438 X_5_13 + 503 X_5_14 + 317 X_6_0 + 616 X_6_1 + 350 X_6_2 + 183 X_6_3
  + 432 X_6_4 + 944 X_6_5 + 68 X_6_7 + 526 X_6_8 + 1007 X_6_9 + 219 X_6_10 + 538 X_6_11 + 494 X_6_12
  + 605 X_6_13 + 531 X_6_14 + 249 X_7_0 + 559 X_7_1 + 417 X_7_2 + 181 X_7_3 + 397 X_7_4 + 931 X_7_5
  + 68 X_7_6 + 502 X_7_8 + 972 X_7_9 + 194 X_7_10 + 574 X_7_11 + 434 X_7_12 + 617 X_7_13 + 547 X_7_14
  + 485 X_8_0 + 353 X_8_1 + 771 X_8_2 + 349 X_8_3 + 129 X_8_4 + 438 X_8_5 + 526 X_8_6 + 502 X_8_7
  + 491 X_8_9 + 309 X_8_10 + 471 X_8_11 + 342 X_8_12 + 320 X_8_13 + 310 X_8_14 + 873 X_9_0 + 534 X_9_1
  + 1260 X_9_2 + 837 X_9_3 + 575 X_9_4 + 326 X_9_5 + 1007 X_9_6 + 972 X_9_7 + 491 X_9_8 + 788 X_9_10
  + 878 X_9_11 + 636 X_9_12 + 668 X_9_13 + 710 X_9_14 + 276 X_10_0 + 437 X_10_1 + 514 X_10_2 + 71 X_10_3
  + 214 X_10_4 + 737 X_10_5 + 219 X_10_6 + 194 X_10_7 + 309 X_10_8 + 788 X_10_9 + 462 X_10_11 + 333 X_10_12
  + 452 X_10_13 + 389 X_10_14 + 739 X_11_0 + 799 X_11_1 + 528 X_11_2 + 416 X_11_3 + 515 X_11_4 + 649 X_11_5
  + 538 X_11_6 + 574 X_11_7 + 471 X_11_8 + 878 X_11_9 + 462 X_11_10 + 740 X_11_12 + 214 X_11_13 + 170 X_11_14
  + 249 X_12_0 + 128 X_12_1 + 832 X_12_2 + 404 X_12_3 + 236 X_12_4 + 730 X_12_5 + 494 X_12_6 + 434 X_12_7
  + 342 X_12_8 + 636 X_12_9 + 333 X_12_10 + 740 X_12_11 + 644 X_12_13 + 612 X_12_14 + 714 X_13_0 + 672 X_13_1
  + 698 X_13_2 + 436 X_13_3 + 408 X_13_4 + 438 X_13_5 + 605 X_13_6 + 617 X_13_7 + 320 X_13_8 + 668 X_13_9
  + 452 X_13_10 + 214 X_13_11 + 644 X_13_12 + 76 X_13_14 + 659 X_14_0 + 654 X_14_1 + 624 X_14_2 + 367 X_14_3
  + 377 X_14_4 + 503 X_14_5 + 531 X_14_6 + 547 X_14_7 + 310 X_14_8 + 710 X_14_9 + 389 X_14_10 + 170 X_14_11
  + 612 X_14_12 + 76 X_14_13
  <= 4
Bounds
 1 <= U1 <= 14
 1 <= U2 <= 14
 1 <= U3 <= 14
 1 <= U4 <= 14
 1 <= U5 <= 14
 1 <= U6 <= 14
 1 <= U7 <= 14
 1 <= U8 <= 14
 1 <= U9 <= 14
 1 <= U10 <= 14
 1 <= U11 <= 14
 1 <= U12 <= 14
 1 <= U13 <= 14
 1 <= U14 <= 14
Binary
 X_0_1
 X_0_2
 X_0_3
 X_0_4
 X_0_5
 X_0_6
 X_0_7
 X_0_8
 X_0_9
 X_0_10
 X_0_11
 X_0_12
 X_0_13
 X_0_14
 X_1_0
 X_1_2
 X_1_3
 X_1_4
 X_1_5
 X_1_6
 X_1_7
 X_1_8
 X_1_9
 X_1_10
 X_1_11
 X_1_12
 X_1_13
 X_1_14
 X_2_0
 X_2_1
 X_2_3
 X_2_4
 X_2_5
 X_2_6
 X_2_7
 X_2_8
 X_2_9
 X_2_10
 X_2_11
 X_2_12
 X_2_13
 X_2_14
 X_3_0
 X_3_1
 X_3_2
 X_3_4
 X_3_5
 X_3_6
 X_3_7
 X_3_8
 X_3_9
 X_3_10
 X_3_11
 X_3_12
 X_3_13
 X_3_14
 X_4_0
 X_4_1
 X_4_2
 X_4_3
 X_4_5
 X_4_6
 X_4_7
 X_4_8
 X_4_9
 X_4_10
 X_4_11
 X_4_12
 X_4_13
 X_4_14
 X_5_0
 X_5_1
 X_5_2
 X_5_3
 X_5_4
 X_5_6
 X_5_7
 X_5_8
 X_5_9
 X_5_10
 X_5_11
 X_5_12
 X_5_13
 X_5_14
 X_6_0
 X_6_1
 X_6_2
 X_6_3
 X_6_4
 X_6_5
 X_6_7
 X_6_8
 X_6_9
 X_6_10
 X_6_11
 X_6_12
 X_6_13
 X_6_14
 X_7_0
 X_7_1
 X_7_2
 X_7_3
 X_7_4
 X_7_5
 X_7_6
 X_7_8
 X_7_9
 X_7_10
 X_7_11
 X_7_12
 X_7_13
 X_7_14
 X_8_0
 X_8_1
 X_8_2
 X_8_3
 X_8_4
 X_8_5
 X_8_6
 X_8_7
 X_8_9
 X_8_10
 X_8_11
 X_8_12
 X_8_13
 X_8_14
 X_9_0
 X_9_1
 X_9_2
 X_9_3
 X_9_4
 X_9_5
 X_9_6
 X_9_7
 X_9_8
 X_9_10
 X_9_11
 X_9_12
 X_9_13
 X_9_14
 X_10_0
 X_10_1
 X_10_2
 X_10_3
 X_10_4
 X_10_5
 X_10_6
 X_10_7
 X_10_8
 X_10_9
 X_10_11
 X_10_12
 X_10_13
 X_10_14
 X_11_0
 X_11_1
 X_11_2
 X_11_3
 X_11_4
 X_11_5
 X_11_6
 X_11_7
 X_11_8
 X_11_9
 X_11_10
 X_11_12
 X_11_13
 X_11_14
 X_12_0
 X_12_1
 X_12_2
 X_12_3
 X_12_4
 X_12_5
 X_12_6
 X_12_7
 X_12_8
 X_12_9
 X_12_10
 X_12_11
 X_12_13
 X_12_14
 X_13_0
 X_13_1
 X_13_2
 X_13_3
 X_13_4
 X_13_5
 X_13_6
 X_13_7
 X_13_8
 X_13_9
 X_13_10
 X_13_11
 X_13_12
 X_13_14
 X_14_0
 X_14_1
 X_14_2
 X_14_3
 X_14_4
 X_14_5
 X_14_6
 X_14_7
 X_14_8
 X_14_9
 X_14_10
 X_14_11
 X_14_12
 X_14_13
End
